Minimize

2.0 x_0 + 3.0 x_1 + 5.0 x_2 + 3.5 x_3 + 1.5 x_4 + 4.5 x_5 + 6.0 x_6 + 1.0 x_7


Subject To

a0: y_0 + y_1 + y_2 <= 3
b0: 0 x_0 + 0 x_1 + 1 x_2 + 1 x_3 + 0 x_4 + 0 x_5 + 0 x_6 + 0 x_7 >= 1
b1: 1 x_0 + 0 x_1 + 0 x_2 + 0 x_3 + 0 x_4 + 0 x_5 + 0 x_6 + 1 x_7 >= 1
b2: 0 x_0 + 0 x_1 + 0 x_2 + 1 x_3 + 1 x_4 + 0 x_5 + 0 x_6 + 1 x_7 >= 1
b3: 0 x_0 + 0 x_1 + 0 x_2 + 1 x_3 + 0 x_4 + 1 x_5 + 0 x_6 + 0 x_7 >= 1
b4: 0 x_0 + 0 x_1 + 1 x_2 + 0 x_3 + 0 x_4 + 1 x_5 + 1 x_6 + 1 x_7 >= 1
b5: 1 x_0 + 0 x_1 + 0 x_2 + 0 x_3 + 0 x_4 + 1 x_5 + 1 x_6 + 0 x_7 >= 1
b6: 1 x_0 + 1 x_1 + 0 x_2 + 0 x_3 + 1 x_4 + 0 x_5 + 0 x_6 + 0 x_7 >= 1
c0: y_2 - x_7 >= 0




 


End
